Cost: 742
0-26-12-39-9-40-17-0
0-32-25-18-50-44-3-51-0
0-27-57-15-29-45-4-0
0-33-1-43-41-42-22-62-0
0-68-2-28-61-21-30-0
0-16-49-24-56-23-63-6-0
0-48-47-36-69-60-37-5-0
0-53-14-19-54-13-52-0
0-67-7-35-8-46-34-0
0-58-10-38-65-66-11-0
Cost: 742
0-68-2-28-61-21-30-0
0-5-37-60-69-36-47-48-0
0-17-40-9-39-12-26-0
0-67-34-52-27-45-4-0
0-7-53-14-35-8-46-0
0-19-54-13-57-15-29-0
0-62-22-42-41-43-1-33-0
0-16-49-24-56-23-63-6-0
0-32-25-18-50-44-3-51-0
0-11-66-65-38-10-58-0
Cost: 742
0-26-12-39-9-40-17-0
0-32-25-18-50-44-3-51-0
0-27-57-15-29-45-4-0
0-33-1-43-41-42-22-62-0
0-68-2-28-61-21-30-0
0-16-49-24-56-23-63-6-0
0-48-47-36-69-60-37-5-0
0-53-14-19-54-13-52-0
0-67-7-35-8-46-34-0
0-58-10-38-65-66-11-0
Cost: 742
0-17-40-9-39-12-26-0
0-67-34-46-52-27-4-0
0-51-3-44-50-18-25-32-0
0-6-63-23-56-24-49-16-0
0-5-37-60-69-36-47-48-0
0-68-2-28-61-21-30-0
0-54-13-57-15-29-45-0
0-11-66-65-38-10-58-0
0-8-19-14-53-35-7-0
0-62-22-42-41-43-1-33-0
Cost: 742
0-51-3-44-50-18-25-32-0
0-16-49-24-56-23-63-6-0
0-30-21-61-28-2-68-0
0-33-1-43-41-42-22-62-0
0-17-40-9-39-12-26-0
0-58-10-38-65-66-11-0
0-5-37-60-69-36-47-48-0
0-7-53-14-35-8-46-0
0-67-34-52-27-45-4-0
0-29-15-57-13-54-19-0
Cost: 742
0-6-63-23-56-24-49-16-0
0-48-47-36-69-60-37-5-0
0-45-29-15-57-13-54-0
0-67-34-46-52-27-4-0
0-62-22-42-41-43-1-33-0
0-51-3-44-50-18-25-32-0
0-7-35-53-14-19-8-0
0-17-40-9-39-12-26-0
0-11-66-65-38-10-58-0
0-68-2-28-61-21-30-0
Cost: 742
0-6-63-23-56-24-49-16-0
0-48-47-36-69-60-37-5-0
0-45-29-15-57-13-54-0
0-67-34-46-52-27-4-0
0-62-22-42-41-43-1-33-0
0-51-3-44-50-18-25-32-0
0-7-35-53-14-19-8-0
0-17-40-9-39-12-26-0
0-11-66-65-38-10-58-0
0-68-2-28-61-21-30-0
Cost: 742
0-6-63-23-56-24-49-16-0
0-48-47-36-69-60-37-5-0
0-45-29-15-57-13-54-0
0-67-34-46-52-27-4-0
0-62-22-42-41-43-1-33-0
0-51-3-44-50-18-25-32-0
0-7-35-53-14-19-8-0
0-17-40-9-39-12-26-0
0-11-66-65-38-10-58-0
0-68-2-28-61-21-30-0
Cost: 742
0-6-63-23-56-24-49-16-0
0-48-47-36-69-60-37-5-0
0-45-29-15-57-13-54-0
0-67-34-46-52-27-4-0
0-62-22-42-41-43-1-33-0
0-51-3-44-50-18-25-32-0
0-7-35-53-14-19-8-0
0-17-40-9-39-12-26-0
0-11-66-65-38-10-58-0
0-68-2-28-61-21-30-0
Cost: 742
0-6-63-23-56-24-49-16-0
0-48-47-36-69-60-37-5-0
0-45-29-15-57-13-54-0
0-67-34-46-52-27-4-0
0-62-22-42-41-43-1-33-0
0-51-3-44-50-18-25-32-0
0-7-35-53-14-19-8-0
0-17-40-9-39-12-26-0
0-11-66-65-38-10-58-0
0-68-2-28-61-21-30-0
Cost: 742
0-6-63-23-56-24-49-16-0
0-48-47-36-69-60-37-5-0
0-45-29-15-57-13-54-0
0-67-34-46-52-27-4-0
0-62-22-42-41-43-1-33-0
0-51-3-44-50-18-25-32-0
0-7-35-53-14-19-8-0
0-17-40-9-39-12-26-0
0-11-66-65-38-10-58-0
0-68-2-28-61-21-30-0
Cost: 742
0-6-63-23-56-24-49-16-0
0-48-47-36-69-60-37-5-0
0-45-29-15-57-13-54-0
0-67-34-46-52-27-4-0
0-62-22-42-41-43-1-33-0
0-51-3-44-50-18-25-32-0
0-7-35-53-14-19-8-0
0-17-40-9-39-12-26-0
0-11-66-65-38-10-58-0
0-68-2-28-61-21-30-0
Cost: 742
0-26-12-39-9-40-17-0
0-51-3-44-50-18-25-32-0
0-46-54-13-57-15-29-0
0-30-21-61-28-2-68-0
0-7-35-53-14-19-8-0
0-4-45-27-52-34-67-0
0-5-37-60-69-36-47-48-0
0-33-1-43-41-42-22-62-0
0-11-66-65-38-10-58-0
0-6-63-23-56-24-49-16-0
Cost: 742
0-6-63-23-56-24-49-16-0
0-48-47-36-69-60-37-5-0
0-45-29-15-57-13-54-0
0-67-34-46-52-27-4-0
0-62-22-42-41-43-1-33-0
0-51-3-44-50-18-25-32-0
0-7-35-53-14-19-8-0
0-17-40-9-39-12-26-0
0-11-66-65-38-10-58-0
0-68-2-28-61-21-30-0
Cost: 742
0-6-63-23-56-24-49-16-0
0-48-47-36-69-60-37-5-0
0-45-29-15-57-13-54-0
0-67-34-46-52-27-4-0
0-62-22-42-41-43-1-33-0
0-51-3-44-50-18-25-32-0
0-7-35-53-14-19-8-0
0-17-40-9-39-12-26-0
0-11-66-65-38-10-58-0
0-68-2-28-61-21-30-0
Cost: 742
0-6-63-23-56-24-49-16-0
0-48-47-36-69-60-37-5-0
0-45-29-15-57-13-54-0
0-67-34-46-52-27-4-0
0-62-22-42-41-43-1-33-0
0-51-3-44-50-18-25-32-0
0-7-35-53-14-19-8-0
0-17-40-9-39-12-26-0
0-11-66-65-38-10-58-0
0-68-2-28-61-21-30-0
Cost: 742
0-4-45-29-15-57-27-0
0-51-3-44-50-18-25-32-0
0-5-37-60-69-36-47-48-0
0-62-22-42-41-43-1-33-0
0-34-46-8-35-7-67-0
0-53-14-19-54-13-52-0
0-58-10-38-65-66-11-0
0-68-2-28-61-21-30-0
0-6-63-23-56-24-49-16-0
0-26-12-39-9-40-17-0
Cost: 742
0-29-15-57-13-54-46-0
0-17-40-9-39-12-26-0
0-68-2-28-61-21-30-0
0-4-45-27-52-34-67-0
0-62-22-42-41-43-1-33-0
0-8-19-14-53-35-7-0
0-16-49-24-56-23-63-6-0
0-51-3-44-50-18-25-32-0
0-58-10-38-65-66-11-0
0-5-37-60-69-36-47-48-0
Cost: 742
0-29-15-57-13-54-46-0
0-17-40-9-39-12-26-0
0-68-2-28-61-21-30-0
0-4-45-27-52-34-67-0
0-62-22-42-41-43-1-33-0
0-8-19-14-53-35-7-0
0-16-49-24-56-23-63-6-0
0-51-3-44-50-18-25-32-0
0-58-10-38-65-66-11-0
0-5-37-60-69-36-47-48-0
Cost: 742
0-27-57-15-29-45-4-0
0-52-13-54-19-14-53-0
0-51-3-44-50-18-25-32-0
0-17-40-9-39-12-26-0
0-11-66-65-38-10-58-0
0-62-22-42-41-43-1-33-0
0-34-46-8-35-7-67-0
0-5-37-60-69-36-47-48-0
0-30-21-61-28-2-68-0
0-16-49-24-56-23-63-6-0
Cost: 742
0-27-57-15-29-45-4-0
0-52-13-54-19-14-53-0
0-51-3-44-50-18-25-32-0
0-17-40-9-39-12-26-0
0-11-66-65-38-10-58-0
0-62-22-42-41-43-1-33-0
0-34-46-8-35-7-67-0
0-5-37-60-69-36-47-48-0
0-30-21-61-28-2-68-0
0-16-49-24-56-23-63-6-0
Cost: 742
0-6-63-23-56-24-49-16-0
0-29-15-57-13-54-46-0
0-5-37-60-69-36-47-48-0
0-68-2-28-61-21-30-0
0-62-22-42-41-43-1-33-0
0-8-19-14-53-35-7-0
0-58-10-38-65-66-11-0
0-26-12-39-9-40-17-0
0-51-3-44-50-18-25-32-0
0-67-34-52-27-45-4-0
Cost: 742
0-27-57-15-29-45-4-0
0-52-13-54-19-14-53-0
0-51-3-44-50-18-25-32-0
0-17-40-9-39-12-26-0
0-11-66-65-38-10-58-0
0-62-22-42-41-43-1-33-0
0-34-46-8-35-7-67-0
0-5-37-60-69-36-47-48-0
0-30-21-61-28-2-68-0
0-16-49-24-56-23-63-6-0
Cost: 742
0-4-45-29-15-57-27-0
0-51-3-44-50-18-25-32-0
0-5-37-60-69-36-47-48-0
0-62-22-42-41-43-1-33-0
0-34-46-8-35-7-67-0
0-53-14-19-54-13-52-0
0-58-10-38-65-66-11-0
0-68-2-28-61-21-30-0
0-6-63-23-56-24-49-16-0
0-26-12-39-9-40-17-0
Cost: 742
0-29-15-57-13-54-46-0
0-17-40-9-39-12-26-0
0-68-2-28-61-21-30-0
0-4-45-27-52-34-67-0
0-62-22-42-41-43-1-33-0
0-8-19-14-53-35-7-0
0-16-49-24-56-23-63-6-0
0-51-3-44-50-18-25-32-0
0-58-10-38-65-66-11-0
0-5-37-60-69-36-47-48-0
Cost: 742
0-68-2-28-61-21-30-0
0-17-40-9-39-12-26-0
0-67-34-52-27-45-4-0
0-48-47-36-69-60-37-5-0
0-7-35-53-14-19-8-0
0-32-25-18-50-44-3-51-0
0-46-54-13-57-15-29-0
0-33-1-43-41-42-22-62-0
0-11-66-65-38-10-58-0
0-6-63-23-56-24-49-16-0
Cost: 759
0-67-34-46-8-7-26-0
0-17-44-32-9-39-12-0
0-11-66-65-38-10-58-0
0-45-29-15-57-13-27-0
0-33-1-43-42-22-62-2-0
0-16-63-23-56-41-6-68-0
0-30-48-47-21-61-28-0
0-36-69-60-20-37-5-4-0
0-40-50-18-24-49-3-51-0
0-52-54-19-14-53-35-0
Cost: 758
0-48-47-5-29-45-4-0
0-11-66-65-38-10-58-0
0-26-12-39-9-40-17-0
0-8-19-14-53-35-7-0
0-34-46-54-13-27-52-0
0-51-3-44-18-50-32-67-0
0-57-15-37-20-60-69-36-0
0-6-63-23-56-24-49-16-0
0-62-22-42-41-43-1-33-0
0-68-2-28-61-21-30-0
Cost: 742
0-17-40-9-39-12-26-0
0-45-29-15-57-13-54-0
0-58-10-38-65-66-11-0
0-51-3-44-50-18-25-32-0
0-16-49-24-56-23-63-6-0
0-5-37-60-69-36-47-48-0
0-67-46-34-52-27-4-0
0-30-21-61-28-2-68-0
0-7-35-53-14-19-8-0
0-62-22-42-41-43-1-33-0
Cost: 742
0-5-37-60-69-36-47-48-0
0-29-15-57-13-54-46-0
0-17-40-9-39-12-26-0
0-4-45-27-52-34-67-0
0-51-3-44-50-18-25-32-0
0-62-22-42-41-43-1-33-0
0-16-49-24-56-23-63-6-0
0-30-21-61-28-2-68-0
0-58-10-38-65-66-11-0
0-8-19-14-53-35-7-0
